
Gurobi 11.0.1 (linux64, gurobi_cl) logging started Wed Apr 24 15:37:26 2024

Set parameter WLSAccessID
Set parameter WLSSecret
Set parameter LicenseID to value 2416028
Set parameter LogFile to value "gurobi.log"
Using license file /home/zhangh5/gurobi.lic
Academic license 2416028 - for non-commercial use only - registered to zh___@mskcc.org

Gurobi 11.0.1 (linux64, gurobi_cl) logging started Wed Apr 24 17:02:21 2024

Set parameter WLSAccessID
Set parameter WLSSecret
Set parameter LicenseID to value 2416028
Set parameter LogFile to value "gurobi.log"
Using license file /home/zhangh5/gurobi.lic
Academic license 2416028 - for non-commercial use only - registered to zh___@mskcc.org

Gurobi 11.0.1 (linux64, gurobi_cl) logging started Wed Apr 24 17:13:59 2024

Set parameter WLSAccessID
Set parameter WLSSecret
Set parameter LicenseID to value 2416028
Set parameter LogFile to value "gurobi.log"
Using license file /home/zhangh5/gurobi.lic
Academic license 2416028 - for non-commercial use only - registered to zh___@mskcc.org

Gurobi 11.0.1 (linux64, gurobi_cl) logging started Wed Apr 24 17:15:31 2024

Set parameter WLSAccessID
Set parameter WLSSecret
Set parameter LicenseID to value 2416028
Set parameter LogFile to value "gurobi.log"
Using license file /home/zhangh5/gurobi.lic
Academic license 2416028 - for non-commercial use only - registered to zh___@mskcc.org
